
Gurobi 9.5.0 (linux64) logging started Sat Nov  4 17:03:18 2023

Set parameter LogFile to value "/lustre1/scratch/348/vsc34888/JointResearch/05.Models/06.Benchmarking/D.Representative_days_based_on_RES_and_Demand/RTS24_ByStages_nc30/openStarNet_RTS24_ByStages_nc30.log"
Set parameter Method to value 2
Set parameter MIPFocus to value 1
Set parameter Presolve to value 2
Set parameter RINS to value 100
Set parameter MIPGap to value 0.01
Set parameter Threads to value 36
Set parameter TimeLimit to value 604800
Set parameter IterationLimit to value 760000000
Gurobi Optimizer version 9.5.0 build v9.5.0rc5 (linux64)
Thread count: 36 physical cores, 36 logical processors, using up to 36 threads
Optimize a model with 13968 rows, 7893 columns and 36795 nonzeros
Model fingerprint: 0xc8fef635
Variable types: 7854 continuous, 39 integer (39 binary)
Coefficient statistics:
  Matrix range     [3e-02, 2e+03]
  Objective range  [1e+00, 1e+00]
  Bounds range     [4e-04, 3e+00]
  RHS range        [4e-04, 3e+00]
Presolve removed 7128 rows and 3471 columns
Presolve time: 0.05s
Presolved: 6840 rows, 4422 columns, 23793 nonzeros
Variable types: 4383 continuous, 39 integer (39 binary)
Found heuristic solution: objective 60.3528162
Root relaxation presolved: 6840 rows, 4422 columns, 23793 nonzeros

Root barrier log...

Ordering time: 0.00s

Barrier statistics:
 Dense cols : 39
 AA' NZ     : 5.061e+04
 Factor NZ  : 1.701e+05 (roughly 6 MB of memory)
 Factor Ops : 5.354e+06 (less than 1 second per iteration)
 Threads    : 36

                  Objective                Residual
Iter       Primal          Dual         Primal    Dual     Compl     Time
   0   5.73144193e+05 -3.89581018e+07  4.23e+00 3.29e+02  7.82e+03     0s
   1   4.56573409e+04 -1.00884714e+07  3.00e-01 9.81e-10  9.27e+02     0s
   2   1.05044976e+04 -1.15961216e+06  6.40e-03 6.96e-10  8.50e+01     0s
   3   5.73124478e+03 -1.33846075e+05  7.94e-07 8.72e-11  1.00e+01     0s
   4   1.17039533e+03 -1.19238372e+04  2.70e-08 4.48e-12  9.39e-01     0s
   5   3.27883349e+02 -3.35605063e+03  2.56e-09 1.82e-12  2.64e-01     0s
   6   1.90632905e+02 -1.15884142e+03  2.63e-10 9.09e-13  9.68e-02     0s
   7   1.52596755e+02 -3.02805507e+02  1.25e-10 1.82e-12  3.27e-02     0s
   8   8.93051190e+01 -6.45262074e+01  2.17e-11 1.82e-12  1.10e-02     0s
   9   6.90046305e+01 -7.50019060e+00  1.04e-11 9.09e-13  5.49e-03     0s
  10   5.28508478e+01  2.85981463e+01  3.44e-12 1.82e-12  1.74e-03     0s
  11   4.70152185e+01  4.06867529e+01  1.20e-12 9.09e-13  4.54e-04     0s
  12   4.52988041e+01  4.25543680e+01  1.98e-12 1.82e-12  1.97e-04     0s
  13   4.46014229e+01  4.32345807e+01  3.63e-12 1.82e-12  9.80e-05     0s
  14   4.41674992e+01  4.34422856e+01  3.30e-11 9.09e-13  5.20e-05     0s
  15   4.38273430e+01  4.35117110e+01  2.93e-11 1.82e-12  2.26e-05     0s
  16   4.36908732e+01  4.36298811e+01  2.68e-11 9.09e-13  4.37e-06     0s
  17   4.36782187e+01  4.36707383e+01  3.21e-11 1.82e-12  5.36e-07     0s
  18   4.36753425e+01  4.36753171e+01  3.28e-11 1.82e-12  1.82e-09     0s
  19   4.36753308e+01  4.36753308e+01  7.62e-10 1.82e-12  3.33e-13     0s

Barrier solved model in 19 iterations and 0.31 seconds (0.18 work units)
Optimal objective 4.36753308e+01


Root relaxation: objective 4.367533e+01, 479 iterations, 0.23 seconds (0.09 work units)

    Nodes    |    Current Node    |     Objective Bounds      |     Work
 Expl Unexpl |  Obj  Depth IntInf | Incumbent    BestBd   Gap | It/Node Time

     0     0   43.67533    0    7   60.35282   43.67533  27.6%     -    0s
H    0     0                      55.0413896   43.67533  20.7%     -    0s
     0     0   44.61892    0    8   55.04139   44.61892  18.9%     -    0s
     0     0   44.78311    0    8   55.04139   44.78311  18.6%     -    0s
     0     0   45.79478    0    9   55.04139   45.79478  16.8%     -    0s
H    0     0                      54.9165033   45.79478  16.6%     -    0s
     0     0   45.89028    0    9   54.91650   45.89028  16.4%     -    0s
     0     0   45.89028    0    9   54.91650   45.89028  16.4%     -    0s
     0     0   47.22391    0    9   54.91650   47.22391  14.0%     -    0s
     0     0   47.31435    0    9   54.91650   47.31435  13.8%     -    0s
     0     0   47.31435    0    9   54.91650   47.31435  13.8%     -    0s
     0     0   47.39139    0    9   54.91650   47.39139  13.7%     -    1s
     0     0   47.49138    0    7   54.91650   47.49138  13.5%     -    1s
     0     0   47.49138    0    7   54.91650   47.49138  13.5%     -    1s
     0     0   47.59223    0    7   54.91650   47.59223  13.3%     -    1s
     0     0   47.59223    0    7   54.91650   47.59223  13.3%     -    1s
     0     0   47.61443    0    8   54.91650   47.61443  13.3%     -    1s
     0     2   47.61443    0    8   54.91650   47.61443  13.3%     -    2s
H   17    28                      53.0764522   48.20563  9.18%   195    2s
H  103    44                      52.8199362   50.34368  4.69%   114    4s
H  105    44                      52.6396511   50.53852  3.99%   116    4s
H  110    44                      52.6080594   50.53852  3.93%   115    4s
   137    33   51.59285    9    3   52.60806   50.55605  3.90%   104    5s

Cutting planes:
  Gomory: 3
  Implied bound: 7
  MIR: 168
  Relax-and-lift: 7

Explored 264 nodes (20270 simplex iterations) in 5.07 seconds (4.91 work units)
Thread count was 36 (of 36 available processors)

Solution count 7: 52.6081 52.6397 52.8199 ... 60.3528

Optimal solution found (tolerance 1.00e-02)
Best objective 5.260805943876e+01, best bound 5.253206902757e+01, gap 0.1444%

Gurobi 9.5.0 (linux64) logging started Sat Nov  4 17:03:24 2023

Set parameter LogFile to value "/lustre1/scratch/348/vsc34888/JointResearch/05.Models/06.Benchmarking/D.Representative_days_based_on_RES_and_Demand/RTS24_ByStages_nc30/openStarNet_RTS24_ByStages_nc30.log"
Set parameter Method to value 2
Set parameter MIPFocus to value 1
Set parameter Presolve to value 2
Set parameter RINS to value 100
Set parameter MIPGap to value 0.01
Set parameter Threads to value 36
Set parameter TimeLimit to value 604800
Set parameter IterationLimit to value 760000000
No parameters matching 'relax_integrality' found
Gurobi Optimizer version 9.5.0 build v9.5.0rc5 (linux64)
Thread count: 36 physical cores, 36 logical processors, using up to 36 threads
Optimize a model with 13968 rows, 7854 columns and 32076 nonzeros
Model fingerprint: 0x80c90d4c
Coefficient statistics:
  Matrix range     [3e-02, 2e+03]
  Objective range  [1e+00, 1e+00]
  Bounds range     [4e-04, 3e+00]
  RHS range        [4e-04, 1e+01]
Presolve removed 11272 rows and 3869 columns
Presolve time: 0.01s
Presolved: 2696 rows, 4045 columns, 9767 nonzeros

Ordering time: 0.00s

Barrier statistics:
 AA' NZ     : 6.608e+03
 Factor NZ  : 2.836e+04 (roughly 2 MB of memory)
 Factor Ops : 4.123e+05 (less than 1 second per iteration)
 Threads    : 1

                  Objective                Residual
Iter       Primal          Dual         Primal    Dual     Compl     Time
   0   5.81393729e+05 -1.17975860e+08  4.96e+00 1.10e+03  3.11e+04     0s
   1   6.72504529e+04 -1.63611209e+07  3.81e-01 2.35e-11  2.97e+03     0s
   2   3.64036743e+04 -1.53858760e+06  9.19e-02 1.59e-11  2.64e+02     0s
   3   2.12145390e+04 -1.98274534e+05  4.05e-03 1.46e-11  3.19e+01     0s
   4   5.85808481e+03 -2.52987772e+04  3.23e-04 8.52e-11  4.49e+00     0s
   5   1.13244943e+03 -3.98438428e+03  5.03e-05 1.97e-11  7.37e-01     0s
   6   3.42030076e+02 -1.06458655e+03  8.78e-06 7.28e-12  2.03e-01     0s
   7   1.66507855e+02 -2.72840094e+02  2.17e-06 7.28e-12  6.33e-02     0s
   8   8.69208652e+01 -3.24855693e+01  3.50e-07 7.28e-12  1.72e-02     0s
   9   6.46622726e+01  2.22798889e+01  1.01e-07 1.82e-12  6.10e-03     0s
  10   5.74383607e+01  4.13267975e+01  3.86e-08 9.09e-13  2.32e-03     0s
  11   5.44681446e+01  4.79649969e+01  1.40e-08 7.28e-12  9.36e-04     0s
  12   5.29764587e+01  5.18601719e+01  2.47e-09 3.64e-12  1.61e-04     0s
  13   5.26197442e+01  5.25572058e+01  1.56e-11 7.28e-12  9.00e-06     0s
  14   5.26081999e+01  5.26056299e+01  9.03e-12 7.28e-12  3.70e-07     0s
  15   5.26080640e+01  5.26080432e+01  4.00e-11 3.64e-12  2.99e-09     0s
  16   5.26080594e+01  5.26080594e+01  3.16e-11 7.28e-12  4.42e-14     0s

Barrier solved model in 16 iterations and 0.05 seconds (0.04 work units)
Optimal objective 5.26080594e+01

Crossover log...

     352 DPushes remaining with DInf 0.0000000e+00                 0s
       0 DPushes remaining with DInf 0.0000000e+00                 0s

     144 PPushes remaining with PInf 0.0000000e+00                 0s
       0 PPushes remaining with PInf 0.0000000e+00                 0s

  Push phase complete: Pinf 0.0000000e+00, Dinf 7.5015341e-13      0s

Iteration    Objective       Primal Inf.    Dual Inf.      Time
     157    5.2608059e+01   0.000000e+00   0.000000e+00      0s

Use crossover to convert LP symmetric solution to basic solution...
Crossover log...

       0 DPushes remaining with DInf 0.0000000e+00                 0s

      96 PPushes remaining with PInf 0.0000000e+00                 0s
       0 PPushes remaining with PInf 0.0000000e+00                 0s

  Push phase complete: Pinf 0.0000000e+00, Dinf 1.0081690e-12      0s

Iteration    Objective       Primal Inf.    Dual Inf.      Time
     269    5.2608059e+01   0.000000e+00   0.000000e+00      0s

Solved in 269 iterations and 0.07 seconds (0.05 work units)
Optimal objective  5.260805944e+01
